NAME: random-31-9513
TYPE: TSP
COMMENT: size=31 seed=9513
DIMENSION: 64
EDGE_WEIGHT_TYPE: EUC_2D
NODE_COORD_SECTION
+0 991 340
-0 991 340
+1 94 482
-1 863 88
+2 585 240
-2 464 818
+3 508 330
-3 655 806
+4 303 746
-4 311 111
+5 202 846
-5 223 944
+6 577 865
-6 309 274
+7 429 365
-7 388 988
+8 744 174
-8 236 795
+9 581 272
-9 758 848
+10 621 227
-10 131 966
+11 346 108
-11 788 531
+12 204 444
-12 236 521
+13 337 367
-13 885 169
+14 296 815
-14 987 567
+15 951 705
-15 220 314
+16 818 336
-16 644 943
+17 612 82
-17 213 115
+18 910 298
-18 512 136
+19 22 996
-19 157 275
+20 870 998
-20 627 810
+21 648 799
-21 924 952
+22 334 430
-22 398 741
+23 732 812
-23 695 949
+24 68 646
-24 80 575
+25 196 364
-25 219 452
+26 367 268
-26 250 503
+27 474 678
-27 481 157
+28 260 744
-28 987 404
+29 53 806
-29 631 76
+30 725 777
-30 606 277
+31 650 40
-31 435 436
PRECEDENCE_SECTION
+0 -0
+1 -1
+2 -2
+3 -3
+4 -4
+5 -5
+6 -6
+7 -7
+8 -8
+9 -9
+10 -10
+11 -11
+12 -12
+13 -13
+14 -14
+15 -15
+16 -16
+17 -17
+18 -18
+19 -19
+20 -20
+21 -21
+22 -22
+23 -23
+24 -24
+25 -25
+26 -26
+27 -27
+28 -28
+29 -29
+30 -30
+31 -31
EOF
